NAME 
ROWS
 N  OBJ
 L  R0      
 E  R1      
 E  R2      
 E  R3      
 E  R4      
 E  R5      
 E  R6      
 E  R7      
 E  R8      
 E  R9      
 E  R10     
 E  R11     
 E  R12     
 E  R13     
 E  R14     
 E  R15     
 E  R16     
 E  R17     
 E  R18     
 E  R19     
 E  R20     
 E  R21     
 E  R22     
 E  R23     
 E  R24     
 E  R25     
 E  R26     
 E  R27     
 E  R28     
 E  R29     
 E  R30     
COLUMNS
    MARKER    'MARKER'                 'INTORG'
    I0(3)     OBJ       -69
    I0(3)     R0        38
    I0(3)     R1        13
    I0(3)     R30       1
    I1(3)     OBJ       -69
    I1(3)     R0        -184
    I1(3)     R2        4
    I1(3)     R30       1
    I2(3)     OBJ       149
    I2(3)     R0        -132
    I2(3)     R3        7
    I2(3)     R30       1
    I3(3)     OBJ       -169
    I3(3)     R0        -130
    I3(3)     R4        2
    I3(3)     R30       1
    I4(3)     OBJ       -90
    I4(3)     R0        36
    I4(3)     R5        12
    I4(3)     R30       1
    I5(3)     OBJ       -120
    I5(3)     R0        -130
    I5(3)     R6        5
    I5(3)     R30       1
    I6(3)     OBJ       98
    I6(3)     R0        154
    I6(3)     R7        8
    I6(3)     R30       1
    I7(3)     OBJ       -103
    I7(3)     R0        181
    I7(3)     R8        13
    I7(3)     R30       1
    I8(2)     OBJ       85
    I8(2)     R0        -75
    I8(2)     R30       1
    I9(3)     OBJ       148
    I9(3)     R0        118
    I9(3)     R10       15
    I9(3)     R30       1
    I10(3)    OBJ       -87
    I10(3)    R0        -15
    I10(3)    R11       8
    I10(3)    R30       1
    I11(3)    OBJ       81
    I11(3)    R0        -155
    I11(3)    R12       14
    I11(3)    R30       1
    I12(3)    OBJ       125
    I12(3)    R0        180
    I12(3)    R13       13
    I12(3)    R30       1
    I13(3)    OBJ       -135
    I13(3)    R0        124
    I13(3)    R14       4
    I13(3)    R30       1
    I14(3)    OBJ       159
    I14(3)    R0        -3
    I14(3)    R15       8
    I14(3)    R30       1
    I15(3)    OBJ       43
    I15(3)    R0        -154
    I15(3)    R16       8
    I15(3)    R30       1
    I16(3)    OBJ       108
    I16(3)    R0        -135
    I16(3)    R17       14
    I16(3)    R30       1
    I17(3)    OBJ       -64
    I17(3)    R0        -107
    I17(3)    R18       4
    I17(3)    R30       1
    I18(3)    OBJ       144
    I18(3)    R0        -55
    I18(3)    R19       16
    I18(3)    R30       1
    I19(3)    OBJ       -191
    I19(3)    R0        -99
    I19(3)    R20       2
    I19(3)    R30       1
    I20(3)    OBJ       -171
    I20(3)    R0        149
    I20(3)    R21       15
    I20(3)    R30       1
    I21(3)    OBJ       -181
    I21(3)    R0        -192
    I21(3)    R22       6
    I21(3)    R30       1
    I22(3)    OBJ       92
    I22(3)    R0        -190
    I22(3)    R23       10
    I22(3)    R30       1
    I23(3)    OBJ       40
    I23(3)    R0        -136
    I23(3)    R24       1
    I23(3)    R30       1
    I24(3)    OBJ       191
    I24(3)    R0        -90
    I24(3)    R25       9
    I24(3)    R30       1
    I25(3)    OBJ       -149
    I25(3)    R0        131
    I25(3)    R26       9
    I25(3)    R30       1
    I26(3)    OBJ       -103
    I26(3)    R0        12
    I26(3)    R27       15
    I26(3)    R30       1
    MARKER    'MARKER'                 'INTEND'
    C27(27)   OBJ       4
    C27(27)   R0        7
    C27(27)   R1        8
    C27(27)   R5        13
    C27(27)   R6        11
    C27(27)   R7        5
    C27(27)   R8        10
    C27(27)   R9        13
    C27(27)   R10       18
    C27(27)   R11       9
    C27(27)   R12       14
    C27(27)   R13       5
    C27(27)   R14       18
    C27(27)   R15       16
    C27(27)   R16       3
    C27(27)   R17       8
    C27(27)   R18       8
    C27(27)   R19       13
    C27(27)   R20       1
    C27(27)   R21       17
    C27(27)   R22       19
    C27(27)   R23       5
    C27(27)   R24       19
    C27(27)   R25       13
    C27(27)   R26       19
    C27(27)   R27       7
    C27(27)   R28       11
    C27(27)   R29       13
    C28(29)   OBJ       1
    C28(29)   R0        2
    C28(29)   R1        4
    C28(29)   R2        10
    C28(29)   R3        17
    C28(29)   R4        16
    C28(29)   R5        11
    C28(29)   R6        18
    C28(29)   R7        15
    C28(29)   R8        8
    C28(29)   R9        18
    C28(29)   R10       7
    C28(29)   R11       6
    C28(29)   R12       6
    C28(29)   R13       -1
    C28(29)   R14       9
    C28(29)   R15       17
    C28(29)   R16       15
    C28(29)   R17       8
    C28(29)   R18       5
    C28(29)   R19       10
    C28(29)   R21       12
    C28(29)   R22       9
    C28(29)   R23       2
    C28(29)   R24       2
    C28(29)   R25       2
    C28(29)   R26       18
    C28(29)   R27       7
    C28(29)   R28       11
    C28(29)   R29       10
    C29(29)   OBJ       -7
    C29(29)   R0        7
    C29(29)   R1        9
    C29(29)   R2        12
    C29(29)   R3        5
    C29(29)   R4        4
    C29(29)   R5        16
    C29(29)   R6        5
    C29(29)   R7        3
    C29(29)   R8        16
    C29(29)   R9        4
    C29(29)   R10       16
    C29(29)   R11       3
    C29(29)   R12       10
    C29(29)   R13       15
    C29(29)   R14       10
    C29(29)   R15       3
    C29(29)   R16       10
    C29(29)   R17       11
    C29(29)   R18       16
    C29(29)   R19       15
    C29(29)   R20       3
    C29(29)   R21       1
    C29(29)   R22       12
    C29(29)   R23       3
    C29(29)   R24       -1
    C29(29)   R25       16
    C29(29)   R27       7
    C29(29)   R28       14
    C29(29)   R29       15
    C30(1)    R1        1
    C31(1)    R2        1
    C32(1)    R3        1
    C33(1)    R4        1
    C34(1)    R5        1
    C35(1)    R6        1
    C36(1)    R7        1
    C37(1)    R8        1
    C38(1)    R9        1
    C39(1)    R10       1
    C40(1)    R11       1
    C41(1)    R12       1
    C42(1)    R13       1
    C43(1)    R14       1
    C44(1)    R15       1
    C45(1)    R16       1
    C46(1)    R17       1
    C47(1)    R18       1
    C48(1)    R19       1
    C49(1)    R20       1
    C50(1)    R21       1
    C51(1)    R22       1
    C52(1)    R23       1
    C53(1)    R24       1
    C54(1)    R25       1
    C55(1)    R26       1
    C56(1)    R27       1
    C57(1)    R28       1
    C58(1)    R29       1
    C59(1)    R30       1
RHS
    RHS1      R0        72.25
    RHS1      R1        99
    RHS1      R2        78
    RHS1      R3        86
    RHS1      R4        50
    RHS1      R5        60
    RHS1      R6        54
    RHS1      R7        99
    RHS1      R8        78
    RHS1      R9        94
    RHS1      R10       72
    RHS1      R11       67
    RHS1      R12       58
    RHS1      R13       80
    RHS1      R14       60
    RHS1      R15       55
    RHS1      R16       71
    RHS1      R17       92
    RHS1      R18       77
    RHS1      R19       70
    RHS1      R20       54
    RHS1      R21       65
    RHS1      R22       95
    RHS1      R23       56
    RHS1      R24       71
    RHS1      R25       77
    RHS1      R26       99
    RHS1      R27       53
    RHS1      R28       97
    RHS1      R29       61
    RHS1      R30       9
BOUNDS
 UP BND1      I0(3)     1
 UP BND1      I1(3)     1
 UP BND1      I2(3)     1
 UP BND1      I3(3)     1
 UP BND1      I4(3)     1
 UP BND1      I5(3)     1
 UP BND1      I6(3)     1
 UP BND1      I7(3)     1
 UP BND1      I8(2)     1
 UP BND1      I9(3)     1
 UP BND1      I10(3)    1
 UP BND1      I11(3)    1
 UP BND1      I12(3)    1
 UP BND1      I13(3)    1
 UP BND1      I14(3)    1
 UP BND1      I15(3)    1
 UP BND1      I16(3)    1
 UP BND1      I17(3)    1
 UP BND1      I18(3)    1
 UP BND1      I19(3)    1
 UP BND1      I20(3)    1
 UP BND1      I21(3)    1
 UP BND1      I22(3)    1
 UP BND1      I23(3)    1
 UP BND1      I24(3)    1
 UP BND1      I25(3)    1
 UP BND1      I26(3)    1
ENDATA
